experiment/data/lkh-res/Vrp-Set-X-n186/Vrp-Set-X-n186-lkh/0.lkh1.vrp
NAME : 0
COMMENT : CVRP Instance
TYPE : CVRP
DIMENSION : 186
EDGE_WEIGHT_TYPE : EUC_2D
CAPACITY : 974
NODE_COORD_SECTION
1	15900	91700
2	63500	20000
3	27800	90700
4	87500	9300
5	1000	73200
6	58600	65700
7	48200	7500
8	52600	17600
9	15300	62200
10	45200	94500
11	45600	13700
12	88400	96800
13	68800	79300
14	11700	91500
15	14900	74600
16	49500	32500
17	53900	96700
18	91700	5800
19	59000	31600
20	61100	99800
21	96300	87800
22	14100	500
23	38300	53100
24	68500	12400
25	3900	78100
26	53400	2900
27	21300	83700
28	87400	73400
29	18000	94300
30	78900	54100
31	34300	94900
32	53700	24800
33	62600	14700
34	5600	59600
35	11200	34400
36	73800	97700
37	94100	19300
38	43700	38600
39	44000	77000
40	74300	62300
41	52100	39800
42	48800	74700
43	32100	73400
44	52100	77800
45	9000	8900
46	71600	65200
47	33300	1200
48	24400	42400
49	19900	11500
50	8300	71900
51	12600	14800
52	78900	43700
53	72800	33600
54	50400	70400
55	93300	94900
56	23200	7800
57	38200	13000
58	34600	200
59	6100	98500
60	35700	50500
61	19900	89200
62	93000	15400
63	40000	9500
64	14800	26100
65	4100	52700
66	2900	33500
67	91300	88500
68	29300	78400
69	10200	96200
70	37200	86600
71	14400	22300
72	68400	89900
73	40200	63600
74	13800	70500
75	71500	74500
76	91400	32300
77	28700	300
78	46100	95300
79	82600	35100
80	78000	16500
81	93500	3800
82	92700	35000
83	75400	70900
84	78400	42300
85	84900	72600
86	7400	77800
87	35400	75000
88	62800	48700
89	36200	56800
90	89800	75900
91	56300	17100
92	72100	63700
93	13600	8300
94	34100	95500
95	89200	93800
96	67100	54200
97	65900	30600
98	80500	67000
99	93000	77800
100	79100	76300
101	74700	28500
102	64100	34700
103	84600	68500
104	59800	25300
105	4500	58500
106	65400	7000
107	88700	42100
108	31000	85400
109	52700	78700
110	60200	6600
111	87800	1000
112	35100	79700
113	99500	98700
114	69700	20000
115	72200	24600
116	84700	20800
117	57700	29500
118	10200	47800
119	89900	18500
120	12300	60100
121	23000	34200
122	43800	54700
123	96800	64900
124	21400	37900
125	24200	76900
126	27300	19400
127	6600	72700
128	35400	33800
129	72500	73500
130	63200	84900
131	41100	27200
132	48100	16500
133	12100	41400
134	49200	7800
135	79400	40600
136	73600	93700
137	70100	49600
138	28200	9400
139	8700	1200
140	96300	61900
141	6100	68800
142	38700	24400
143	74000	24200
144	20900	57100
145	63100	20800
146	64300	52100
147	28000	1100
148	22600	4000
149	16100	29600
150	83900	5400
151	81400	50400
152	96700	66800
153	23600	70400
154	21800	61800
155	52600	66700
156	8700	98100
157	76800	19700
158	97600	12200
159	17700	71200
160	44900	90200
161	49200	6300
162	76100	12200
163	60900	62100
164	61400	24000
165	47800	59900
166	17500	31200
167	23900	63600
168	34700	19900
169	61900	62000
170	27500	2400
171	56500	76900
172	12000	87100
173	14000	95700
174	6800	73600
175	66100	29400
176	60400	73700
177	9100	95600
178	1600	56100
179	68000	25400
180	17300	17100
181	85200	97800
182	53300	75700
183	35200	95700
184	40900	93900
185	63000	90200
186	48700	22000
DEMAND_SECTION
1	0
2	74
3	74
4	80
5	85
6	99
7	81
8	85
9	100
10	74
11	57
12	60
13	74
14	60
15	77
16	72
17	87
18	89
19	53
20	72
21	62
22	53
23	54
24	98
25	65
26	72
27	81
28	84
29	64
30	52
31	60
32	95
33	55
34	79
35	97
36	51
37	93
38	50
39	93
40	95
41	90
42	95
43	71
44	89
45	77
46	81
47	74
48	53
49	79
50	58
51	61
52	97
53	93
54	95
55	80
56	72
57	92
58	88
59	90
60	85
61	83
62	83
63	59
64	75
65	80
66	55
67	66
68	99
69	89
70	53
71	64
72	85
73	52
74	60
75	63
76	94
77	66
78	56
79	71
80	97
81	98
82	57
83	94
84	60
85	70
86	56
87	56
88	52
89	64
90	81
91	81
92	100
93	73
94	62
95	75
96	68
97	80
98	68
99	89
100	98
101	92
102	97
103	80
104	56
105	83
106	84
107	93
108	50
109	62
110	74
111	51
112	52
113	90
114	50
115	58
116	89
117	66
118	78
119	69
120	90
121	77
122	64
123	63
124	54
125	54
126	79
127	91
128	75
129	51
130	81
131	73
132	74
133	72
134	68
135	72
136	60
137	77
138	81
139	67
140	85
141	85
142	75
143	98
144	73
145	50
146	100
147	64
148	58
149	50
150	97
151	100
152	87
153	76
154	52
155	94
156	76
157	99
158	73
159	88
160	97
161	88
162	58
163	76
164	56
165	51
166	57
167	74
168	100
169	80
170	64
171	94
172	75
173	54
174	97
175	92
176	60
177	75
178	71
179	67
180	96
181	93
182	53
183	80
184	94
185	56
186	60
DEPOT_SECTION
1
-1
EOF
