experiment/data/lkh-res/Vrp-Set-X-n186/Vrp-Set-X-n186-lkh/0.lkh1.tour
NAME : 0.2426208.tour
COMMENT : Length = 2426208
COMMENT : Found by LKH-3 [Keld Helsgaun] Tue Apr  9 03:45:25 2024
TYPE : TOUR
DIMENSION : 200
TOUR_SECTION
1
14
177
59
156
69
173
187
130
13
100
85
28
90
99
152
123
140
103
98
198
125
73
146
96
92
46
83
129
75
176
171
109
44
191
186
8
91
106
110
26
161
134
7
11
132
131
128
195
101
116
119
37
62
158
18
81
111
150
4
114
199
15
74
9
120
34
105
141
50
127
174
86
172
190
25
5
178
65
118
133
35
166
124
144
154
167
153
194
142
168
57
63
58
47
77
147
170
138
126
121
48
188
112
39
42
182
6
169
163
155
54
87
43
68
193
185
72
136
67
21
113
55
95
12
181
36
20
17
197
89
23
41
19
117
104
164
145
2
179
175
97
102
122
196
40
30
151
107
82
76
79
135
84
52
137
88
165
192
159
149
64
71
180
49
56
148
22
139
45
93
51
66
200
60
38
16
32
33
24
162
80
157
143
115
53
189
61
27
108
70
160
78
10
184
183
94
31
3
29
-1
EOF
